NAME          BLANK   
ROWS
 N  OBJROW
 L  R0000000
COLUMNS
    C0000000  OBJROW     -658.         R0000000  174.        
    C0000001  OBJROW     -305.         R0000000  157.        
    C0000002  OBJROW     -378.         R0000000  196.        
    C0000003  OBJROW     -65.          R0000000  567.        
    C0000004  OBJROW     -1000.        R0000000  786.        
    C0000005  OBJROW     -11.          R0000000  673.        
    C0000006  OBJROW     -976.         R0000000  808.        
    C0000007  OBJROW     -489.         R0000000  211.        
    C0000008  OBJROW     -754.         R0000000  86.         
    C0000009  OBJROW     -961.         R0000000  565.        
    C0000010  OBJROW     -786.         R0000000  868.        
    C0000011  OBJROW     -857.         R0000000  623.        
    C0000012  OBJROW     -442.         R0000000  716.        
    C0000013  OBJROW     -951.         R0000000  927.        
    C0000014  OBJROW     -363.         R0000000  196.        
    C0000015  OBJROW     -975.         R0000000  367.        
    C0000016  OBJROW     -924.         R0000000  722.        
    C0000017  OBJROW     -389.         R0000000  529.        
    C0000018  OBJROW     -118.         R0000000  616.        
    C0000019  OBJROW     -77.          R0000000  459.        
    C0000020  OBJROW     -84.          R0000000  936.        
    C0000021  OBJROW     -774.         R0000000  497.        
    C0000022  OBJROW     -604.         R0000000  129.        
    C0000023  OBJROW     -102.         R0000000  409.        
    C0000024  OBJROW     -316.         R0000000  529.        
    C0000025  OBJROW     -543.         R0000000  778.        
    C0000026  OBJROW     -628.         R0000000  247.        
    C0000027  OBJROW     -381.         R0000000  523.        
    C0000028  OBJROW     -910.         R0000000  119.        
    C0000029  OBJROW     -621.         R0000000  979.        
    C0000030  OBJROW     -998.         R0000000  504.        
    C0000031  OBJROW     -955.         R0000000  369.        
    C0000032  OBJROW     -143.         R0000000  634.        
    C0000033  OBJROW     -276.         R0000000  839.        
    C0000034  OBJROW     -253.         R0000000  844.        
    C0000035  OBJROW     -237.         R0000000  309.        
    C0000036  OBJROW     -429.         R0000000  118.        
    C0000037  OBJROW     -53.          R0000000  13.         
    C0000038  OBJROW     -869.         R0000000  740.        
    C0000039  OBJROW     -766.         R0000000  150.        
RHS
    RHS       R0000000  9956.       
BOUNDS
 BV BOUND     C0000000  1.          
 BV BOUND     C0000001  1.          
 BV BOUND     C0000002  1.          
 BV BOUND     C0000003  1.          
 BV BOUND     C0000004  1.          
 BV BOUND     C0000005  1.          
 BV BOUND     C0000006  1.          
 BV BOUND     C0000007  1.          
 BV BOUND     C0000008  1.          
 BV BOUND     C0000009  1.          
 BV BOUND     C0000010  1.          
 BV BOUND     C0000011  1.          
 BV BOUND     C0000012  1.          
 BV BOUND     C0000013  1.          
 BV BOUND     C0000014  1.          
 BV BOUND     C0000015  1.          
 BV BOUND     C0000016  1.          
 BV BOUND     C0000017  1.          
 BV BOUND     C0000018  1.          
 BV BOUND     C0000019  1.          
 BV BOUND     C0000020  1.          
 BV BOUND     C0000021  1.          
 BV BOUND     C0000022  1.          
 BV BOUND     C0000023  1.          
 BV BOUND     C0000024  1.          
 BV BOUND     C0000025  1.          
 BV BOUND     C0000026  1.          
 BV BOUND     C0000027  1.          
 BV BOUND     C0000028  1.          
 BV BOUND     C0000029  1.          
 BV BOUND     C0000030  1.          
 BV BOUND     C0000031  1.          
 BV BOUND     C0000032  1.          
 BV BOUND     C0000033  1.          
 BV BOUND     C0000034  1.          
 BV BOUND     C0000035  1.          
 BV BOUND     C0000036  1.          
 BV BOUND     C0000037  1.          
 BV BOUND     C0000038  1.          
 BV BOUND     C0000039  1.          
ENDATA
